p edge 50 304 20
v 2 5 22
v 2 28 29
v 1 12
v 1 16
v 4 1 25 38 43
v 2 11 36
v 2 18 47
v 2 13 37
v 2 21 27
v 3 8 9 49
v 3 6 34 44
v 4 2 32 40 45
v 2 4 20
v 5 3 10 30 31 46
v 2 24 48
v 3 35 39 50
v 2 14 26
v 3 15 19 23
v 4 7 17 33 42
v 1 41
e 1 5
e 1 6
e 1 9
e 1 11
e 1 17
e 1 26
e 1 27
e 1 30
e 1 33
e 1 34
e 1 35
e 1 43
e 1 44
e 2 8
e 2 9
e 2 13
e 2 15
e 2 16
e 2 20
e 2 23
e 2 25
e 2 26
e 2 32
e 2 35
e 2 37
e 2 45
e 2 47
e 3 8
e 3 11
e 3 18
e 3 22
e 3 31
e 3 33
e 3 35
e 3 36
e 3 39
e 3 40
e 3 41
e 3 43
e 3 45
e 4 6
e 4 7
e 4 14
e 4 20
e 4 35
e 4 43
e 4 46
e 5 11
e 5 15
e 5 16
e 5 22
e 5 23
e 5 28
e 5 33
e 5 48
e 6 9
e 6 10
e 6 16
e 6 17
e 6 18
e 6 22
e 6 25
e 6 27
e 6 33
e 6 35
e 6 44
e 6 45
e 6 48
e 7 22
e 7 35
e 7 36
e 7 40
e 7 50
e 8 11
e 8 12
e 8 15
e 8 16
e 8 23
e 8 24
e 8 30
e 8 31
e 8 35
e 8 39
e 8 41
e 8 45
e 8 46
e 9 16
e 9 22
e 9 23
e 9 28
e 9 29
e 9 34
e 9 36
e 9 38
e 9 41
e 9 46
e 9 47
e 9 48
e 10 11
e 10 17
e 10 21
e 10 25
e 10 26
e 10 32
e 10 35
e 10 36
e 10 39
e 10 41
e 10 42
e 10 43
e 10 45
e 10 49
e 11 14
e 11 18
e 11 19
e 11 22
e 11 24
e 11 25
e 11 32
e 11 37
e 11 38
e 11 39
e 11 43
e 11 44
e 12 22
e 12 30
e 12 37
e 12 39
e 12 44
e 12 45
e 12 46
e 12 49
e 12 50
e 13 17
e 13 19
e 13 20
e 13 21
e 13 23
e 13 25
e 13 35
e 13 41
e 13 42
e 13 43
e 13 44
e 13 45
e 14 16
e 14 31
e 14 34
e 14 35
e 14 41
e 14 44
e 14 46
e 14 48
e 15 16
e 15 18
e 15 19
e 15 22
e 15 23
e 15 30
e 15 32
e 15 48
e 16 17
e 16 19
e 16 20
e 16 28
e 16 33
e 16 36
e 16 49
e 16 50
e 17 18
e 17 21
e 17 25
e 17 29
e 17 31
e 17 33
e 17 34
e 17 37
e 17 38
e 17 41
e 17 45
e 17 48
e 18 19
e 18 21
e 18 26
e 18 27
e 18 33
e 18 37
e 18 38
e 18 40
e 18 43
e 19 24
e 19 25
e 19 29
e 19 47
e 19 50
e 20 23
e 20 29
e 20 31
e 20 33
e 20 41
e 20 42
e 20 43
e 20 48
e 21 28
e 21 31
e 21 35
e 21 36
e 21 40
e 21 42
e 21 43
e 22 23
e 22 25
e 22 28
e 22 30
e 22 34
e 22 39
e 22 42
e 22 46
e 23 24
e 23 27
e 23 31
e 23 33
e 23 36
e 23 46
e 23 47
e 24 27
e 24 28
e 24 29
e 24 31
e 24 35
e 24 36
e 24 40
e 24 48
e 24 50
e 25 36
e 25 41
e 25 46
e 25 48
e 26 28
e 26 40
e 26 43
e 26 50
e 27 28
e 27 33
e 27 34
e 27 35
e 27 37
e 27 42
e 27 49
e 27 50
e 28 31
e 28 32
e 28 37
e 28 39
e 28 40
e 28 41
e 28 47
e 28 50
e 29 38
e 29 41
e 29 50
e 30 36
e 30 37
e 30 43
e 30 49
e 31 32
e 31 36
e 31 44
e 31 50
e 32 37
e 32 42
e 32 46
e 32 48
e 33 37
e 33 38
e 33 43
e 34 49
e 34 50
e 35 38
e 35 39
e 35 43
e 35 47
e 36 47
e 36 48
e 36 50
e 37 50
e 38 43
e 38 46
e 38 48
e 38 49
e 39 40
e 39 46
e 39 47
e 40 41
e 40 45
e 41 42
e 41 43
e 42 45
e 42 49
e 44 46
e 44 50
e 46 49
e 47 50
e 48 50
